200
150
100
99
99
99
98
97
97
96
96
95
94
93
93
93
92
92
92
92
92
92
91
91
91
91
90
90
89
89
89
89
86
86
86
85
85
84
83
83
83
82
82
82
81
81
80
80
80
79
78
77
77
77
77
76
76
76
76
75
75
73
72
72
71
70
70
70
70
68
68
68
68
68
67
65
65
64
64
62
62
61
60
60
59
59
59
59
59
58
58
57
57
56
56
56
56
55
54
53
53
53
53
52
52
52
51
51
51
50
50
50
50
49
49
49
49
49
49
48
48
48
47
46
46
46
45
44
43
42
42
42
41
39
37
37
36
36
35
35
35
34
34
33
33
32
32
31
31
31
30
29
29
29
29
28
28
27
26
25
25
25
25
24
23
23
23
23
23
22
22
22
21
18
18
18
17
16
16
16
15
14
14
13
13
12
11
11
11
11
9
8
8
5
4
4
3
2
2
2
1
1
